h_HfN2_rec                              
   1.00000000000000     
     6.0138814126584412    0.0000000000000000    0.0000000000000000
     0.0000000000000000    3.4730617768085787    0.0000000000000000
     0.0000000000000000    0.0000000000000000   20.0000000000000000
   N    Hf
     4     2
Direct
  0.0000115168033077 -0.0000000000000000  0.4577736023289107
  0.5000115168033077  0.5000000000000000  0.4577736023289107
  0.0000115168033077 -0.0000000000000000  0.5422264276710919
  0.5000115168033077  0.5000000000000000  0.5422264276710919
  0.3333069713933852  0.0000000000000000  0.5000000000000000
  0.8333069423933863  0.5000000000000000  0.5000000000000000
 
  0.00000000E+00  0.00000000E+00  0.00000000E+00
  0.00000000E+00  0.00000000E+00  0.00000000E+00
  0.00000000E+00  0.00000000E+00  0.00000000E+00
  0.00000000E+00  0.00000000E+00  0.00000000E+00
  0.00000000E+00  0.00000000E+00  0.00000000E+00
  0.00000000E+00  0.00000000E+00  0.00000000E+00
