TiN2                                    
   1.00000000000000     
     5.6999479133550093    0.0000000000000000    0.0000000000000000
     0.0000000000000000    3.2908196842150277    0.0000000000000000
     0.0000000000000000    0.0000000000000000   20.0000000000000000
   N    Ti
     4     2
Direct
 -0.0000009143218805 -0.0000000000000000  0.4610722456090984
  0.4999990856781195  0.5000000000000000  0.4610722456090984
 -0.0000009143218805  0.0000000000000000  0.5389277543909016
  0.4999990856781195  0.5000000000000000  0.5389277543909016
  0.3333318336437615 -0.0000000000000000  0.5000000000000000
  0.8333318046437627  0.5000000000000000  0.5000000000000000
 
  0.00000000E+00  0.00000000E+00  0.00000000E+00
  0.00000000E+00  0.00000000E+00  0.00000000E+00
  0.00000000E+00  0.00000000E+00  0.00000000E+00
  0.00000000E+00  0.00000000E+00  0.00000000E+00
  0.00000000E+00  0.00000000E+00  0.00000000E+00
  0.00000000E+00  0.00000000E+00  0.00000000E+00
