 CrBr3_Graphene                         
   1.00000000000000     
     6.4237999916000001    0.0000000000000000    0.0000000000000000
    -3.2118999958000001    5.5631739816000003    0.0000000000000000
     0.0000000000000000    0.0000000000000000   30.0000000000000000
C
14
Direct
  0.9501267660939900  0.1905828590874536  0.6054337878401918
  0.3787229041212298  0.4762735802498204  0.6055135567254091
  0.7120268513220285  0.1429111230548230  0.6052574085365505
  0.5692029225691262  0.7144023355245364  0.6055164333962849
  0.8073314431380483  0.7620641324416663  0.6053902859506901
  0.5215499804743954  0.9048296243838545  0.6054856371398730
  0.8549130380220993  0.5715411176213321  0.6052397707254347
  0.2834473291425175  0.8571785874414293  0.6055734835829856
  0.2358586902880600  0.0476882443500424  0.6054911804757297
  0.0929891488085367  0.6191194132904985  0.6054881223167849
  0.4262921322877187  0.2857904788077237  0.6053381635211015
  0.1406647544195462  0.4286720445117549  0.6055498983027906
  0.6644149154317811  0.3334487709769069  0.6051342527192382
 -0.0021980937186638  0.0001271516176081  0.6054633133142907
