CrO2                                    
   1.00000000000000     
2.657462683830968    2.657462685155602    0.0000000000000000
-2.072060059312357    2.072060058351408    0.0000000000000000
     0.0000000000000000    0.0000000000000000   24.3128000000000064
   O    Cr
     4     2
Direct
  0.7500000001772733  0.7604828500780485  0.4127063725915434
  0.2500000000165201  0.2395171810680736  0.5872936386835832
  0.7499999999942162  0.7468227457331835  0.5195949363750714
  0.2500000000056914  0.2531772605728477  0.4804050683099845
  0.2499999999084821  0.7683213876497916  0.5419305525111184
  0.7499999998978168  0.2316785748980550  0.4580694315286991
 
  0.00000000E+00  0.00000000E+00  0.00000000E+00
  0.00000000E+00  0.00000000E+00  0.00000000E+00
  0.00000000E+00  0.00000000E+00  0.00000000E+00
  0.00000000E+00  0.00000000E+00  0.00000000E+00
  0.00000000E+00  0.00000000E+00  0.00000000E+00
  0.00000000E+00  0.00000000E+00  0.00000000E+00
