 CrBr3_Graphene                         
   1.00000000000000     
     6.4237999916000001    0.0000000000000000    0.0000000000000000
    -3.2118999958000001    5.5631739816000003    0.0000000000000000
     0.0000000000000000    0.0000000000000000   30.0000000000000000
Cr  Br
2  6
Direct
  0.6632204683160503  0.3332714982131019  0.4406161585361566
  0.3296096158673948  0.6664275199193300  0.4408062280439563
  0.3483737591249281  0.3519901302902983  0.3921462424694220
  0.6446945761770858  0.6479123624227129  0.4893389247047730
  0.6442096069707880 -0.0002339041548975  0.3921554389540736
  0.3482284308416133  0.0000933496959167  0.4892874085995845
  0.9965114584939324  0.6480792594741271  0.3921662891270991
 -0.0040706551922224  0.3511604287799522  0.4893181400175890
