K-Path Generated by VASPKIT.
   80
Line-Mode
Reciprocal
   0.0000000000   0.5000000000   0.0000000000     Y              
   0.0000      0.3354      0.0000  G

   0.0000      0.3354      0.0000  G          
   0.5000000000   0.3354   0.0000000000     X              
 
   0.5000000000   0.3354   0.0000000000     X              
   0.5000000000   0.5000000000   0.0000000000     S              
 
   0.5000000000   0.5000000000   0.0000000000     S              
   0.0000000000   0.5000000000   0.0000000000     Y         

